\ENCODING=ISO-8859-1
\Problem name: IloCplex

Maximize
 obj1: z#314
Subject To
 c1:   q_1#0 + q_9#1 <= 4.01071827770126
 c2:   q_3#2 + q_6#3 + q_7#4 <= 5.10580377066257
 c3:   q_1#0 + q_8#5 <= 5.05131302509218
 c4:   q_9#1 + q_5#6 <= 5.73828027260684
 c5:   x_05#7 + x_02#8 >= 1
 c6:   - 300 hap_1_00#9 + ap_00#10 <= 0
 c7:   x_05#7 + x_02#8 + 2 hap_1_00#9 <= 3
 c8:   - x_02#8 >= -1
 c9:   - 300 han_2_00#11 + an_00#12 <= 0
 c10:  - x_02#8 + 2 han_2_00#11 <= 1
 c11:  x_19#13 + x_17#14 >= 1
 c12:  - 300 hap_1_01#15 + ap_01#16 <= 0
 c13:  x_19#13 + x_17#14 + 2 hap_1_01#15 <= 3
 c14:  - x_19#13 >= -1
 c15:  - 300 han_2_01#17 + an_01#18 <= 0
 c16:  - x_19#13 + 2 han_2_01#17 <= 1
 c17:  x_05#19 + x_02#20 >= 1
 c18:  - 300 hap_1_10#21 + ap_10#22 <= 0
 c19:  x_05#19 + x_02#20 + 2 hap_1_10#21 <= 3
 c20:  - x_02#20 >= -1
 c21:  - 300 han_2_10#23 + an_10#24 <= 0
 c22:  - x_02#20 + 2 han_2_10#23 <= 1
 c23:  x_19#25 + x_17#26 >= 1
 c24:  - 300 hap_1_11#27 + ap_11#28 <= 0
 c25:  x_19#25 + x_17#26 + 2 hap_1_11#27 <= 3
 c26:  - x_19#25 >= -1
 c27:  - 300 han_2_11#29 + an_11#30 <= 0
 c28:  - x_19#25 + 2 han_2_11#29 <= 1
 c29:  x_05#31 + x_02#32 >= 1
 c30:  - 300 hap_1_20#33 + ap_20#34 <= 0
 c31:  x_05#31 + x_02#32 + 2 hap_1_20#33 <= 3
 c32:  - x_02#32 >= -1
 c33:  - 300 han_2_20#35 + an_20#36 <= 0
 c34:  - x_02#32 + 2 han_2_20#35 <= 1
 c35:  x_19#37 + x_17#38 >= 1
 c36:  - 300 hap_1_21#39 + ap_21#40 <= 0
 c37:  x_19#37 + x_17#38 + 2 hap_1_21#39 <= 3
 c38:  - x_19#37 >= -1
 c39:  - 300 han_2_21#41 + an_21#42 <= 0
 c40:  - x_19#37 + 2 han_2_21#41 <= 1
 c41:  x_05#43 + x_02#44 >= 1
 c42:  - 300 hap_1_30#45 + ap_30#46 <= 0
 c43:  x_05#43 + x_02#44 + 2 hap_1_30#45 <= 3
 c44:  - x_02#44 >= -1
 c45:  - 300 han_2_30#47 + an_30#48 <= 0
 c46:  - x_02#44 + 2 han_2_30#47 <= 1
 c47:  x_19#49 + x_17#50 >= 1
 c48:  - 300 hap_1_31#51 + ap_31#52 <= 0
 c49:  x_19#49 + x_17#50 + 2 hap_1_31#51 <= 3
 c50:  - x_19#49 >= -1
 c51:  - 300 han_2_31#53 + an_31#54 <= 0
 c52:  - x_19#49 + 2 han_2_31#53 <= 1
 c53:  x_04#55 - x_01#56 >= 0
 c54:  - 300 hb_002#57 + b_002#58 <= 0
 c55:  x_04#55 - x_01#56 + 2 hb_002#57 <= 2
 c56:  x_06#59 + x_00#60 - x_03#61 >= 0
 c57:  - 300 hb_004#62 + b_004#63 <= 0
 c58:  x_06#59 + x_00#60 - x_03#61 + 2 hb_004#62 <= 2
 c59:  x_09#64 + x_07#65 >= 0
 c60:  - 300 hb_005#66 + b_005#67 <= 0
 c61:  x_09#64 + x_07#65 + 2 hb_005#66 <= 2
 c62:  - x_04#55 >= 0
 c63:  - 300 hb_006#68 + b_006#69 <= 0
 c64:  - x_04#55 + 2 hb_006#68 <= 2
 c65:  - x_05#7 - x_06#59 + x_03#61 >= 0
 c66:  - 300 hb_007#70 + b_007#71 <= 0
 c67:  - x_05#7 - x_06#59 + x_03#61 + 2 hb_007#70 <= 2
 c68:  x_01#56 - x_07#65 - x_08#72 >= 0
 c69:  - 300 hb_008#73 + b_008#74 <= 0
 c70:  x_01#56 - x_07#65 - x_08#72 + 2 hb_008#73 <= 2
 c71:  - x_09#64 + x_08#72 >= 0
 c72:  - 300 hb_009#75 + b_009#76 <= 0
 c73:  - x_09#64 + x_08#72 + 2 hb_009#75 <= 2
 c74:  x_15#77 + x_12#78 - x_10#79 >= 0
 c75:  - 300 hb_010#80 + b_010#81 <= 0
 c76:  x_15#77 + x_12#78 - x_10#79 + 2 hb_010#80 <= 2
 c77:  x_14#82 - x_11#83 >= 0
 c78:  - 300 hb_012#84 + b_012#85 <= 0
 c79:  x_14#82 - x_11#83 + 2 hb_012#84 <= 2
 c80:  - x_12#78 >= 0
 c81:  - 300 hb_013#86 + b_013#87 <= 0
 c82:  - x_12#78 + 2 hb_013#86 <= 2
 c83:  x_10#79 + x_16#88 - x_13#89 >= 0
 c84:  - 300 hb_014#90 + b_014#91 <= 0
 c85:  x_10#79 + x_16#88 - x_13#89 + 2 hb_014#90 <= 2
 c86:  - x_14#82 >= 0
 c87:  - 300 hb_016#92 + b_016#93 <= 0
 c88:  - x_14#82 + 2 hb_016#92 <= 2
 c89:  - x_15#77 - x_16#88 + x_13#89 >= 0
 c90:  - 300 hb_017#94 + b_017#95 <= 0
 c91:  - x_15#77 - x_16#88 + x_13#89 + 2 hb_017#94 <= 2
 c92:  - x_17#14 + x_11#83 - x_18#96 >= 0
 c93:  - 300 hb_018#97 + b_018#98 <= 0
 c94:  - x_17#14 + x_11#83 - x_18#96 + 2 hb_018#97 <= 2
 c95:  x_04#99 - x_01#100 >= 0
 c96:  - 300 hb_102#101 + b_102#102 <= 0
 c97:  x_04#99 - x_01#100 + 2 hb_102#101 <= 2
 c98:  x_06#103 + x_00#104 - x_03#105 >= 0
 c99:  - 300 hb_104#106 + b_104#107 <= 0
 c100: x_06#103 + x_00#104 - x_03#105 + 2 hb_104#106 <= 2
 c101: x_09#108 + x_07#109 >= 0
 c102: - 300 hb_105#110 + b_105#111 <= 0
 c103: x_09#108 + x_07#109 + 2 hb_105#110 <= 2
 c104: - x_04#99 >= 0
 c105: - 300 hb_106#112 + b_106#113 <= 0
 c106: - x_04#99 + 2 hb_106#112 <= 2
 c107: - x_05#19 - x_06#103 + x_03#105 >= 0
 c108: - 300 hb_107#114 + b_107#115 <= 0
 c109: - x_05#19 - x_06#103 + x_03#105 + 2 hb_107#114 <= 2
 c110: x_01#100 - x_07#109 - x_08#116 >= 0
 c111: - 300 hb_108#117 + b_108#118 <= 0
 c112: x_01#100 - x_07#109 - x_08#116 + 2 hb_108#117 <= 2
 c113: - x_09#108 + x_08#116 >= 0
 c114: - 300 hb_109#119 + b_109#120 <= 0
 c115: - x_09#108 + x_08#116 + 2 hb_109#119 <= 2
 c116: x_15#121 + x_12#122 - x_10#123 >= 0
 c117: - 300 hb_110#124 + b_110#125 <= 0
 c118: x_15#121 + x_12#122 - x_10#123 + 2 hb_110#124 <= 2
 c119: x_14#126 - x_11#127 >= 0
 c120: - 300 hb_112#128 + b_112#129 <= 0
 c121: x_14#126 - x_11#127 + 2 hb_112#128 <= 2
 c122: - x_12#122 >= 0
 c123: - 300 hb_113#130 + b_113#131 <= 0
 c124: - x_12#122 + 2 hb_113#130 <= 2
 c125: x_10#123 + x_16#132 - x_13#133 >= 0
 c126: - 300 hb_114#134 + b_114#135 <= 0
 c127: x_10#123 + x_16#132 - x_13#133 + 2 hb_114#134 <= 2
 c128: - x_14#126 >= 0
 c129: - 300 hb_116#136 + b_116#137 <= 0
 c130: - x_14#126 + 2 hb_116#136 <= 2
 c131: - x_15#121 - x_16#132 + x_13#133 >= 0
 c132: - 300 hb_117#138 + b_117#139 <= 0
 c133: - x_15#121 - x_16#132 + x_13#133 + 2 hb_117#138 <= 2
 c134: - x_17#26 + x_11#127 - x_18#140 >= 0
 c135: - 300 hb_118#141 + b_118#142 <= 0
 c136: - x_17#26 + x_11#127 - x_18#140 + 2 hb_118#141 <= 2
 c137: x_04#143 - x_01#144 >= 0
 c138: - 300 hb_202#145 + b_202#146 <= 0
 c139: x_04#143 - x_01#144 + 2 hb_202#145 <= 2
 c140: x_06#147 + x_00#148 - x_03#149 >= 0
 c141: - 300 hb_204#150 + b_204#151 <= 0
 c142: x_06#147 + x_00#148 - x_03#149 + 2 hb_204#150 <= 2
 c143: x_09#152 + x_07#153 >= 0
 c144: - 300 hb_205#154 + b_205#155 <= 0
 c145: x_09#152 + x_07#153 + 2 hb_205#154 <= 2
 c146: - x_04#143 >= 0
 c147: - 300 hb_206#156 + b_206#157 <= 0
 c148: - x_04#143 + 2 hb_206#156 <= 2
 c149: - x_05#31 - x_06#147 + x_03#149 >= 0
 c150: - 300 hb_207#158 + b_207#159 <= 0
 c151: - x_05#31 - x_06#147 + x_03#149 + 2 hb_207#158 <= 2
 c152: x_01#144 - x_07#153 - x_08#160 >= 0
 c153: - 300 hb_208#161 + b_208#162 <= 0
 c154: x_01#144 - x_07#153 - x_08#160 + 2 hb_208#161 <= 2
 c155: - x_09#152 + x_08#160 >= 0
 c156: - 300 hb_209#163 + b_209#164 <= 0
 c157: - x_09#152 + x_08#160 + 2 hb_209#163 <= 2
 c158: x_15#165 + x_12#166 - x_10#167 >= 0
 c159: - 300 hb_210#168 + b_210#169 <= 0
 c160: x_15#165 + x_12#166 - x_10#167 + 2 hb_210#168 <= 2
 c161: x_14#170 - x_11#171 >= 0
 c162: - 300 hb_212#172 + b_212#173 <= 0
 c163: x_14#170 - x_11#171 + 2 hb_212#172 <= 2
 c164: - x_12#166 >= 0
 c165: - 300 hb_213#174 + b_213#175 <= 0
 c166: - x_12#166 + 2 hb_213#174 <= 2
 c167: x_10#167 + x_16#176 - x_13#177 >= 0
 c168: - 300 hb_214#178 + b_214#179 <= 0
 c169: x_10#167 + x_16#176 - x_13#177 + 2 hb_214#178 <= 2
 c170: - x_14#170 >= 0
 c171: - 300 hb_216#180 + b_216#181 <= 0
 c172: - x_14#170 + 2 hb_216#180 <= 2
 c173: - x_15#165 - x_16#176 + x_13#177 >= 0
 c174: - 300 hb_217#182 + b_217#183 <= 0
 c175: - x_15#165 - x_16#176 + x_13#177 + 2 hb_217#182 <= 2
 c176: - x_17#38 + x_11#171 - x_18#184 >= 0
 c177: - 300 hb_218#185 + b_218#186 <= 0
 c178: - x_17#38 + x_11#171 - x_18#184 + 2 hb_218#185 <= 2
 c179: x_04#187 - x_01#188 >= 0
 c180: - 300 hb_302#189 + b_302#190 <= 0
 c181: x_04#187 - x_01#188 + 2 hb_302#189 <= 2
 c182: x_06#191 + x_00#192 - x_03#193 >= 0
 c183: - 300 hb_304#194 + b_304#195 <= 0
 c184: x_06#191 + x_00#192 - x_03#193 + 2 hb_304#194 <= 2
 c185: x_09#196 + x_07#197 >= 0
 c186: - 300 hb_305#198 + b_305#199 <= 0
 c187: x_09#196 + x_07#197 + 2 hb_305#198 <= 2
 c188: - x_04#187 >= 0
 c189: - 300 hb_306#200 + b_306#201 <= 0
 c190: - x_04#187 + 2 hb_306#200 <= 2
 c191: - x_05#43 - x_06#191 + x_03#193 >= 0
 c192: - 300 hb_307#202 + b_307#203 <= 0
 c193: - x_05#43 - x_06#191 + x_03#193 + 2 hb_307#202 <= 2
 c194: x_01#188 - x_07#197 - x_08#204 >= 0
 c195: - 300 hb_308#205 + b_308#206 <= 0
 c196: x_01#188 - x_07#197 - x_08#204 + 2 hb_308#205 <= 2
 c197: - x_09#196 + x_08#204 >= 0
 c198: - 300 hb_309#207 + b_309#208 <= 0
 c199: - x_09#196 + x_08#204 + 2 hb_309#207 <= 2
 c200: x_15#209 + x_12#210 - x_10#211 >= 0
 c201: - 300 hb_310#212 + b_310#213 <= 0
 c202: x_15#209 + x_12#210 - x_10#211 + 2 hb_310#212 <= 2
 c203: x_14#214 - x_11#215 >= 0
 c204: - 300 hb_312#216 + b_312#217 <= 0
 c205: x_14#214 - x_11#215 + 2 hb_312#216 <= 2
 c206: - x_12#210 >= 0
 c207: - 300 hb_313#218 + b_313#219 <= 0
 c208: - x_12#210 + 2 hb_313#218 <= 2
 c209: x_10#211 + x_16#220 - x_13#221 >= 0
 c210: - 300 hb_314#222 + b_314#223 <= 0
 c211: x_10#211 + x_16#220 - x_13#221 + 2 hb_314#222 <= 2
 c212: - x_14#214 >= 0
 c213: - 300 hb_316#224 + b_316#225 <= 0
 c214: - x_14#214 + 2 hb_316#224 <= 2
 c215: - x_15#209 - x_16#220 + x_13#221 >= 0
 c216: - 300 hb_317#226 + b_317#227 <= 0
 c217: - x_15#209 - x_16#220 + x_13#221 + 2 hb_317#226 <= 2
 c218: - x_17#50 + x_11#215 - x_18#228 >= 0
 c219: - 300 hb_318#229 + b_318#230 <= 0
 c220: - x_17#50 + x_11#215 - x_18#228 + 2 hb_318#229 <= 2
 c221: b_004#63 - q_0#231 <= 0
 c222: x_00#60 - 2 hdu_000#232 <= 0
 c223: - b_004#63 + q_0#231 + 300 hdu_000#232 <= 300
 c224: - q_1#0 - b_002#58 + b_008#74 <= 2
 c225: x_01#56 - 2 hdu_001#233 <= 0
 c226: q_1#0 + b_002#58 - b_008#74 + 300 hdu_001#233 <= 298
 c227: ap_00#10 - an_00#12 - q_2#234 <= 0
 c228: x_02#8 - 2 hdu_002#235 <= 0
 c229: - ap_00#10 + an_00#12 + q_2#234 + 300 hdu_002#235 <= 300
 c230: - q_3#2 - b_004#63 + b_007#71 <= 0
 c231: x_03#61 - 2 hdu_003#236 <= 0
 c232: q_3#2 + b_004#63 - b_007#71 + 300 hdu_003#236 <= 300
 c233: b_002#58 - b_006#69 - q_4#237 <= 1
 c234: x_04#55 - 2 hdu_004#238 <= 0
 c235: - b_002#58 + b_006#69 + q_4#237 + 300 hdu_004#238 <= 299
 c236: - q_5#6 + ap_00#10 - b_007#71 <= 0.150000000000025
 c237: x_05#7 - 2 hdu_005#239 <= 0
 c238: q_5#6 - ap_00#10 + b_007#71 + 300 hdu_005#239 <= 299.85
 c239: - q_6#3 + b_004#63 - b_007#71 <= 0
 c240: x_06#59 - 2 hdu_006#240 <= 0
 c241: q_6#3 - b_004#63 + b_007#71 + 300 hdu_006#240 <= 300
 c242: - q_7#4 + b_005#67 - b_008#74 <= 0
 c243: x_07#65 - 2 hdu_007#241 <= 0
 c244: q_7#4 - b_005#67 + b_008#74 + 300 hdu_007#241 <= 300
 c245: - q_8#5 - b_008#74 + b_009#76 <= 0
 c246: x_08#72 - 2 hdu_008#242 <= 0
 c247: q_8#5 + b_008#74 - b_009#76 + 300 hdu_008#242 <= 300
 c248: - q_9#1 + b_005#67 - b_009#76 <= 0
 c249: x_09#64 - 2 hdu_009#243 <= 0
 c250: q_9#1 - b_005#67 + b_009#76 + 300 hdu_009#243 <= 300
 c251: - b_010#81 + b_014#91 - q_0#231 <= 0
 c252: x_10#79 - 2 hdu_010#244 <= 0
 c253: b_010#81 - b_014#91 + q_0#231 + 300 hdu_010#244 <= 300
 c254: - q_1#0 - b_012#85 + b_018#98 <= 0
 c255: x_11#83 - 2 hdu_011#245 <= 0
 c256: q_1#0 + b_012#85 - b_018#98 + 300 hdu_011#245 <= 300
 c257: b_010#81 - b_013#87 - q_2#234 <= 0
 c258: x_12#78 - 2 hdu_012#246 <= 0
 c259: - b_010#81 + b_013#87 + q_2#234 + 300 hdu_012#246 <= 300
 c260: - q_3#2 - b_014#91 + b_017#95 <= 0
 c261: x_13#89 - 2 hdu_013#247 <= 0
 c262: q_3#2 + b_014#91 - b_017#95 + 300 hdu_013#247 <= 300
 c263: b_012#85 - b_016#93 - q_4#237 <= 0
 c264: x_14#82 - 2 hdu_014#248 <= 0
 c265: - b_012#85 + b_016#93 + q_4#237 + 300 hdu_014#248 <= 300
 c266: - q_5#6 + b_010#81 - b_017#95 <= 0
 c267: x_15#77 - 2 hdu_015#249 <= 0
 c268: q_5#6 - b_010#81 + b_017#95 + 300 hdu_015#249 <= 300
 c269: - q_6#3 + b_014#91 - b_017#95 <= 0
 c270: x_16#88 - 2 hdu_016#250 <= 0
 c271: q_6#3 - b_014#91 + b_017#95 + 300 hdu_016#250 <= 300
 c272: - q_7#4 + ap_01#16 - b_018#98 <= 0.724999999999852
 c273: x_17#14 - 2 hdu_017#251 <= 0
 c274: q_7#4 - ap_01#16 + b_018#98 + 300 hdu_017#251 <= 299.275
 c275: - q_8#5 - b_018#98 <= 0
 c276: x_18#96 - 2 hdu_018#252 <= 0
 c277: q_8#5 + b_018#98 + 300 hdu_018#252 <= 300
 c278: - q_9#1 + ap_01#16 - an_01#18 <= 0
 c279: x_19#13 - 2 hdu_019#253 <= 0
 c280: q_9#1 - ap_01#16 + an_01#18 + 300 hdu_019#253 <= 300
 c281: b_104#107 - q_0#231 <= 0
 c282: x_00#104 - 2 hdu_100#254 <= 0
 c283: - b_104#107 + q_0#231 + 300 hdu_100#254 <= 300
 c284: - q_1#0 - b_102#102 + b_108#118 <= 0
 c285: x_01#100 - 2 hdu_101#255 <= 0
 c286: q_1#0 + b_102#102 - b_108#118 + 300 hdu_101#255 <= 300
 c287: ap_10#22 - an_10#24 - q_2#234 <= 0
 c288: x_02#20 - 2 hdu_102#256 <= 0
 c289: - ap_10#22 + an_10#24 + q_2#234 + 300 hdu_102#256 <= 300
 c290: - q_3#2 - b_104#107 + b_107#115 <= 0
 c291: x_03#105 - 2 hdu_103#257 <= 0
 c292: q_3#2 + b_104#107 - b_107#115 + 300 hdu_103#257 <= 300
 c293: b_102#102 - b_106#113 - q_4#237 <= 0
 c294: x_04#99 - 2 hdu_104#258 <= 0
 c295: - b_102#102 + b_106#113 + q_4#237 + 300 hdu_104#258 <= 300
 c296: - q_5#6 + ap_10#22 - b_107#115 <= 0.300000000000002
 c297: x_05#19 - 2 hdu_105#259 <= 0
 c298: q_5#6 - ap_10#22 + b_107#115 + 300 hdu_105#259 <= 299.7
 c299: - q_6#3 + b_104#107 - b_107#115 <= 0.075
 c300: x_06#103 - 2 hdu_106#260 <= 0
 c301: q_6#3 - b_104#107 + b_107#115 + 300 hdu_106#260 <= 299.925
 c302: - q_7#4 + b_105#111 - b_108#118 <= 1.80000000000024
 c303: x_07#109 - 2 hdu_107#261 <= 0
 c304: q_7#4 - b_105#111 + b_108#118 + 300 hdu_107#261 <= 298.2
 c305: - q_8#5 - b_108#118 + b_109#120 <= 2
 c306: x_08#116 - 2 hdu_108#262 <= 0
 c307: q_8#5 + b_108#118 - b_109#120 + 300 hdu_108#262 <= 298
 c308: - q_9#1 + b_105#111 - b_109#120 <= 1
 c309: x_09#108 - 2 hdu_109#263 <= 0
 c310: q_9#1 - b_105#111 + b_109#120 + 300 hdu_109#263 <= 299
 c311: - b_110#125 + b_114#135 - q_0#231 <= 0
 c312: x_10#123 - 2 hdu_110#264 <= 0
 c313: b_110#125 - b_114#135 + q_0#231 + 300 hdu_110#264 <= 300
 c314: - q_1#0 - b_112#129 + b_118#142 <= 0
 c315: x_11#127 - 2 hdu_111#265 <= 0
 c316: q_1#0 + b_112#129 - b_118#142 + 300 hdu_111#265 <= 300
 c317: b_110#125 - b_113#131 - q_2#234 <= 0
 c318: x_12#122 - 2 hdu_112#266 <= 0
 c319: - b_110#125 + b_113#131 + q_2#234 + 300 hdu_112#266 <= 300
 c320: - q_3#2 - b_114#135 + b_117#139 <= 0
 c321: x_13#133 - 2 hdu_113#267 <= 0
 c322: q_3#2 + b_114#135 - b_117#139 + 300 hdu_113#267 <= 300
 c323: b_112#129 - b_116#137 - q_4#237 <= 1
 c324: x_14#126 - 2 hdu_114#268 <= 0
 c325: - b_112#129 + b_116#137 + q_4#237 + 300 hdu_114#268 <= 299
 c326: - q_5#6 + b_110#125 - b_117#139 <= 0
 c327: x_15#121 - 2 hdu_115#269 <= 0
 c328: q_5#6 - b_110#125 + b_117#139 + 300 hdu_115#269 <= 300
 c329: - q_6#3 + b_114#135 - b_117#139 <= 0.075
 c330: x_16#132 - 2 hdu_116#270 <= 0
 c331: q_6#3 - b_114#135 + b_117#139 + 300 hdu_116#270 <= 299.925
 c332: - q_7#4 + ap_11#28 - b_118#142 <= 0
 c333: x_17#26 - 2 hdu_117#271 <= 0
 c334: q_7#4 - ap_11#28 + b_118#142 + 300 hdu_117#271 <= 300
 c335: - q_8#5 - b_118#142 <= 0.174999999999955
 c336: x_18#140 - 2 hdu_118#272 <= 0
 c337: q_8#5 + b_118#142 + 300 hdu_118#272 <= 299.825
 c338: - q_9#1 + ap_11#28 - an_11#30 <= 0
 c339: x_19#25 - 2 hdu_119#273 <= 0
 c340: q_9#1 - ap_11#28 + an_11#30 + 300 hdu_119#273 <= 300
 c341: b_204#151 - q_0#231 <= 0
 c342: x_00#148 - 2 hdu_200#274 <= 0
 c343: - b_204#151 + q_0#231 + 300 hdu_200#274 <= 300
 c344: - q_1#0 - b_202#146 + b_208#162 <= 0
 c345: x_01#144 - 2 hdu_201#275 <= 0
 c346: q_1#0 + b_202#146 - b_208#162 + 300 hdu_201#275 <= 300
 c347: ap_20#34 - an_20#36 - q_2#234 <= 0
 c348: x_02#32 - 2 hdu_202#276 <= 0
 c349: - ap_20#34 + an_20#36 + q_2#234 + 300 hdu_202#276 <= 300
 c350: - q_3#2 - b_204#151 + b_207#159 <= 0
 c351: x_03#149 - 2 hdu_203#277 <= 0
 c352: q_3#2 + b_204#151 - b_207#159 + 300 hdu_203#277 <= 300
 c353: b_202#146 - b_206#157 - q_4#237 <= 0
 c354: x_04#143 - 2 hdu_204#278 <= 0
 c355: - b_202#146 + b_206#157 + q_4#237 + 300 hdu_204#278 <= 300
 c356: - q_5#6 + ap_20#34 - b_207#159 <= 0.300000000000002
 c357: x_05#31 - 2 hdu_205#279 <= 0
 c358: q_5#6 - ap_20#34 + b_207#159 + 300 hdu_205#279 <= 299.7
 c359: - q_6#3 + b_204#151 - b_207#159 <= 0.075
 c360: x_06#147 - 2 hdu_206#280 <= 0
 c361: q_6#3 - b_204#151 + b_207#159 + 300 hdu_206#280 <= 299.925
 c362: - q_7#4 + b_205#155 - b_208#162 <= 1.80000000000024
 c363: x_07#153 - 2 hdu_207#281 <= 0
 c364: q_7#4 - b_205#155 + b_208#162 + 300 hdu_207#281 <= 298.2
 c365: - q_8#5 - b_208#162 + b_209#164 <= 2
 c366: x_08#160 - 2 hdu_208#282 <= 0
 c367: q_8#5 + b_208#162 - b_209#164 + 300 hdu_208#282 <= 298
 c368: - q_9#1 + b_205#155 - b_209#164 <= 1
 c369: x_09#152 - 2 hdu_209#283 <= 0
 c370: q_9#1 - b_205#155 + b_209#164 + 300 hdu_209#283 <= 299
 c371: - b_210#169 + b_214#179 - q_0#231 <= 0
 c372: x_10#167 - 2 hdu_210#284 <= 0
 c373: b_210#169 - b_214#179 + q_0#231 + 300 hdu_210#284 <= 300
 c374: - q_1#0 - b_212#173 + b_218#186 <= 0
 c375: x_11#171 - 2 hdu_211#285 <= 0
 c376: q_1#0 + b_212#173 - b_218#186 + 300 hdu_211#285 <= 300
 c377: b_210#169 - b_213#175 - q_2#234 <= 0
 c378: x_12#166 - 2 hdu_212#286 <= 0
 c379: - b_210#169 + b_213#175 + q_2#234 + 300 hdu_212#286 <= 300
 c380: - q_3#2 - b_214#179 + b_217#183 <= 0
 c381: x_13#177 - 2 hdu_213#287 <= 0
 c382: q_3#2 + b_214#179 - b_217#183 + 300 hdu_213#287 <= 300
 c383: b_212#173 - b_216#181 - q_4#237 <= 1
 c384: x_14#170 - 2 hdu_214#288 <= 0
 c385: - b_212#173 + b_216#181 + q_4#237 + 300 hdu_214#288 <= 299
 c386: - q_5#6 + b_210#169 - b_217#183 <= 0
 c387: x_15#165 - 2 hdu_215#289 <= 0
 c388: q_5#6 - b_210#169 + b_217#183 + 300 hdu_215#289 <= 300
 c389: - q_6#3 + b_214#179 - b_217#183 <= 0.075
 c390: x_16#176 - 2 hdu_216#290 <= 0
 c391: q_6#3 - b_214#179 + b_217#183 + 300 hdu_216#290 <= 299.925
 c392: - q_7#4 + ap_21#40 - b_218#186 <= 0
 c393: x_17#38 - 2 hdu_217#291 <= 0
 c394: q_7#4 - ap_21#40 + b_218#186 + 300 hdu_217#291 <= 300
 c395: - q_8#5 - b_218#186 <= 0.174999999999955
 c396: x_18#184 - 2 hdu_218#292 <= 0
 c397: q_8#5 + b_218#186 + 300 hdu_218#292 <= 299.825
 c398: - q_9#1 + ap_21#40 - an_21#42 <= 0
 c399: x_19#37 - 2 hdu_219#293 <= 0
 c400: q_9#1 - ap_21#40 + an_21#42 + 300 hdu_219#293 <= 300
 c401: b_304#195 - q_0#231 <= 0
 c402: x_00#192 - 2 hdu_300#294 <= 0
 c403: - b_304#195 + q_0#231 + 300 hdu_300#294 <= 300
 c404: - q_1#0 - b_302#190 + b_308#206 <= 0
 c405: x_01#188 - 2 hdu_301#295 <= 0
 c406: q_1#0 + b_302#190 - b_308#206 + 300 hdu_301#295 <= 300
 c407: ap_30#46 - an_30#48 - q_2#234 <= 0
 c408: x_02#44 - 2 hdu_302#296 <= 0
 c409: - ap_30#46 + an_30#48 + q_2#234 + 300 hdu_302#296 <= 300
 c410: - q_3#2 - b_304#195 + b_307#203 <= 0
 c411: x_03#193 - 2 hdu_303#297 <= 0
 c412: q_3#2 + b_304#195 - b_307#203 + 300 hdu_303#297 <= 300
 c413: b_302#190 - b_306#201 - q_4#237 <= 0
 c414: x_04#187 - 2 hdu_304#298 <= 0
 c415: - b_302#190 + b_306#201 + q_4#237 + 300 hdu_304#298 <= 300
 c416: - q_5#6 + ap_30#46 - b_307#203 <= 0.300000000000002
 c417: x_05#43 - 2 hdu_305#299 <= 0
 c418: q_5#6 - ap_30#46 + b_307#203 + 300 hdu_305#299 <= 299.7
 c419: - q_6#3 + b_304#195 - b_307#203 <= 0.075
 c420: x_06#191 - 2 hdu_306#300 <= 0
 c421: q_6#3 - b_304#195 + b_307#203 + 300 hdu_306#300 <= 299.925
 c422: - q_7#4 + b_305#199 - b_308#206 <= 1.80000000000024
 c423: x_07#197 - 2 hdu_307#301 <= 0
 c424: q_7#4 - b_305#199 + b_308#206 + 300 hdu_307#301 <= 298.2
 c425: - q_8#5 - b_308#206 + b_309#208 <= 2
 c426: x_08#204 - 2 hdu_308#302 <= 0
 c427: q_8#5 + b_308#206 - b_309#208 + 300 hdu_308#302 <= 298
 c428: - q_9#1 + b_305#199 - b_309#208 <= 1
 c429: x_09#196 - 2 hdu_309#303 <= 0
 c430: q_9#1 - b_305#199 + b_309#208 + 300 hdu_309#303 <= 299
 c431: - b_310#213 + b_314#223 - q_0#231 <= 0
 c432: x_10#211 - 2 hdu_310#304 <= 0
 c433: b_310#213 - b_314#223 + q_0#231 + 300 hdu_310#304 <= 300
 c434: - q_1#0 - b_312#217 + b_318#230 <= 0
 c435: x_11#215 - 2 hdu_311#305 <= 0
 c436: q_1#0 + b_312#217 - b_318#230 + 300 hdu_311#305 <= 300
 c437: b_310#213 - b_313#219 - q_2#234 <= 0
 c438: x_12#210 - 2 hdu_312#306 <= 0
 c439: - b_310#213 + b_313#219 + q_2#234 + 300 hdu_312#306 <= 300
 c440: - q_3#2 - b_314#223 + b_317#227 <= 0
 c441: x_13#221 - 2 hdu_313#307 <= 0
 c442: q_3#2 + b_314#223 - b_317#227 + 300 hdu_313#307 <= 300
 c443: b_312#217 - b_316#225 - q_4#237 <= 1
 c444: x_14#214 - 2 hdu_314#308 <= 0
 c445: - b_312#217 + b_316#225 + q_4#237 + 300 hdu_314#308 <= 299
 c446: - q_5#6 + b_310#213 - b_317#227 <= 0
 c447: x_15#209 - 2 hdu_315#309 <= 0
 c448: q_5#6 - b_310#213 + b_317#227 + 300 hdu_315#309 <= 300
 c449: - q_6#3 + b_314#223 - b_317#227 <= 0.075
 c450: x_16#220 - 2 hdu_316#310 <= 0
 c451: q_6#3 - b_314#223 + b_317#227 + 300 hdu_316#310 <= 299.925
 c452: - q_7#4 + ap_31#52 - b_318#230 <= 0
 c453: x_17#50 - 2 hdu_317#311 <= 0
 c454: q_7#4 - ap_31#52 + b_318#230 + 300 hdu_317#311 <= 300
 c455: - q_8#5 - b_318#230 <= 0.174999999999955
 c456: x_18#228 - 2 hdu_318#312 <= 0
 c457: q_8#5 + b_318#230 + 300 hdu_318#312 <= 299.825
 c458: - q_9#1 + ap_31#52 - an_31#54 <= 0
 c459: x_19#49 - 2 hdu_319#313 <= 0
 c460: q_9#1 - ap_31#52 + an_31#54 + 300 hdu_319#313 <= 300
 c461: 2.15000000000002 x_05#7 + 3 x_02#8 - ap_00#10 + an_00#12 + 3 x_19#13
       + 2.72499999999985 x_17#14 - ap_01#16 + an_01#18 + 3 x_04#55 + 3 x_01#56
       + 2 x_06#59 + 3 x_00#60 + 3 x_03#61 + 3 x_09#64 + 2 x_07#65 + 3 x_08#72
       + 2 x_15#77 + 3 x_12#78 + 3 x_10#79 + 2 x_14#82 + x_11#83 + 2 x_16#88
       + 3 x_13#89 + 3 x_18#96 + z#314 <= 0
 c462: 2.3 x_05#19 + 3 x_02#20 - ap_10#22 + an_10#24 + 3 x_19#25 + 2 x_17#26
       - ap_11#28 + an_11#30 + 2 x_04#99 + x_01#100 + 2.075 x_06#103
       + 3 x_00#104 + 3 x_03#105 + 4 x_09#108 + 3.80000000000024 x_07#109
       + 5 x_08#116 + 2 x_15#121 + 3 x_12#122 + 3 x_10#123 + 3 x_14#126
       + x_11#127 + 2.075 x_16#132 + 3 x_13#133 + 3.17499999999995 x_18#140
       + z#314 <= 0
 c463: 2.3 x_05#31 + 3 x_02#32 - ap_20#34 + an_20#36 + 3 x_19#37 + 2 x_17#38
       - ap_21#40 + an_21#42 + 2 x_04#143 + x_01#144 + 2.075 x_06#147
       + 3 x_00#148 + 3 x_03#149 + 4 x_09#152 + 3.80000000000024 x_07#153
       + 5 x_08#160 + 2 x_15#165 + 3 x_12#166 + 3 x_10#167 + 3 x_14#170
       + x_11#171 + 2.075 x_16#176 + 3 x_13#177 + 3.17499999999995 x_18#184
       + z#314 <= 0
 c464: 2.3 x_05#43 + 3 x_02#44 - ap_30#46 + an_30#48 + 3 x_19#49 + 2 x_17#50
       - ap_31#52 + an_31#54 + 2 x_04#187 + x_01#188 + 2.075 x_06#191
       + 3 x_00#192 + 3 x_03#193 + 4 x_09#196 + 3.80000000000024 x_07#197
       + 5 x_08#204 + 2 x_15#209 + 3 x_12#210 + 3 x_10#211 + 3 x_14#214
       + x_11#215 + 2.075 x_16#220 + 3 x_13#221 + 3.17499999999995 x_18#228
       + z#314 <= 0
Bounds
 0 <= q_1#0 <= 1
 0 <= q_9#1 <= 1
 0 <= q_3#2 <= 1
 0 <= q_6#3 <= 2
 0 <= q_7#4 <= 2
 0 <= q_8#5 <= 2
 0 <= q_5#6 <= 3
 0 <= x_05#7 <= 1
 0 <= x_02#8 <= 1
 0 <= hap_1_00#9 <= 1
 0 <= han_2_00#11 <= 1
 0 <= x_19#13 <= 1
 0 <= x_17#14 <= 1
 0 <= hap_1_01#15 <= 1
 0 <= han_2_01#17 <= 1
 0 <= x_05#19 <= 1
 0 <= x_02#20 <= 1
 0 <= hap_1_10#21 <= 1
 0 <= han_2_10#23 <= 1
 0 <= x_19#25 <= 1
 0 <= x_17#26 <= 1
 0 <= hap_1_11#27 <= 1
 0 <= han_2_11#29 <= 1
 0 <= x_05#31 <= 1
 0 <= x_02#32 <= 1
 0 <= hap_1_20#33 <= 1
 0 <= han_2_20#35 <= 1
 0 <= x_19#37 <= 1
 0 <= x_17#38 <= 1
 0 <= hap_1_21#39 <= 1
 0 <= han_2_21#41 <= 1
 0 <= x_05#43 <= 1
 0 <= x_02#44 <= 1
 0 <= hap_1_30#45 <= 1
 0 <= han_2_30#47 <= 1
 0 <= x_19#49 <= 1
 0 <= x_17#50 <= 1
 0 <= hap_1_31#51 <= 1
 0 <= han_2_31#53 <= 1
 0 <= x_04#55 <= 1
 0 <= x_01#56 <= 1
 0 <= hb_002#57 <= 1
 0 <= x_06#59 <= 1
 0 <= x_00#60 <= 1
 0 <= x_03#61 <= 1
 0 <= hb_004#62 <= 1
 0 <= x_09#64 <= 1
 0 <= x_07#65 <= 1
 0 <= hb_005#66 <= 1
 0 <= hb_006#68 <= 1
 0 <= hb_007#70 <= 1
 0 <= x_08#72 <= 1
 0 <= hb_008#73 <= 1
 0 <= hb_009#75 <= 1
 0 <= x_15#77 <= 1
 0 <= x_12#78 <= 1
 0 <= x_10#79 <= 1
 0 <= hb_010#80 <= 1
 0 <= x_14#82 <= 1
 0 <= x_11#83 <= 1
 0 <= hb_012#84 <= 1
 0 <= hb_013#86 <= 1
 0 <= x_16#88 <= 1
 0 <= x_13#89 <= 1
 0 <= hb_014#90 <= 1
 0 <= hb_016#92 <= 1
 0 <= hb_017#94 <= 1
 0 <= x_18#96 <= 1
 0 <= hb_018#97 <= 1
 0 <= x_04#99 <= 1
 0 <= x_01#100 <= 1
 0 <= hb_102#101 <= 1
 0 <= x_06#103 <= 1
 0 <= x_00#104 <= 1
 0 <= x_03#105 <= 1
 0 <= hb_104#106 <= 1
 0 <= x_09#108 <= 1
 0 <= x_07#109 <= 1
 0 <= hb_105#110 <= 1
 0 <= hb_106#112 <= 1
 0 <= hb_107#114 <= 1
 0 <= x_08#116 <= 1
 0 <= hb_108#117 <= 1
 0 <= hb_109#119 <= 1
 0 <= x_15#121 <= 1
 0 <= x_12#122 <= 1
 0 <= x_10#123 <= 1
 0 <= hb_110#124 <= 1
 0 <= x_14#126 <= 1
 0 <= x_11#127 <= 1
 0 <= hb_112#128 <= 1
 0 <= hb_113#130 <= 1
 0 <= x_16#132 <= 1
 0 <= x_13#133 <= 1
 0 <= hb_114#134 <= 1
 0 <= hb_116#136 <= 1
 0 <= hb_117#138 <= 1
 0 <= x_18#140 <= 1
 0 <= hb_118#141 <= 1
 0 <= x_04#143 <= 1
 0 <= x_01#144 <= 1
 0 <= hb_202#145 <= 1
 0 <= x_06#147 <= 1
 0 <= x_00#148 <= 1
 0 <= x_03#149 <= 1
 0 <= hb_204#150 <= 1
 0 <= x_09#152 <= 1
 0 <= x_07#153 <= 1
 0 <= hb_205#154 <= 1
 0 <= hb_206#156 <= 1
 0 <= hb_207#158 <= 1
 0 <= x_08#160 <= 1
 0 <= hb_208#161 <= 1
 0 <= hb_209#163 <= 1
 0 <= x_15#165 <= 1
 0 <= x_12#166 <= 1
 0 <= x_10#167 <= 1
 0 <= hb_210#168 <= 1
 0 <= x_14#170 <= 1
 0 <= x_11#171 <= 1
 0 <= hb_212#172 <= 1
 0 <= hb_213#174 <= 1
 0 <= x_16#176 <= 1
 0 <= x_13#177 <= 1
 0 <= hb_214#178 <= 1
 0 <= hb_216#180 <= 1
 0 <= hb_217#182 <= 1
 0 <= x_18#184 <= 1
 0 <= hb_218#185 <= 1
 0 <= x_04#187 <= 1
 0 <= x_01#188 <= 1
 0 <= hb_302#189 <= 1
 0 <= x_06#191 <= 1
 0 <= x_00#192 <= 1
 0 <= x_03#193 <= 1
 0 <= hb_304#194 <= 1
 0 <= x_09#196 <= 1
 0 <= x_07#197 <= 1
 0 <= hb_305#198 <= 1
 0 <= hb_306#200 <= 1
 0 <= hb_307#202 <= 1
 0 <= x_08#204 <= 1
 0 <= hb_308#205 <= 1
 0 <= hb_309#207 <= 1
 0 <= x_15#209 <= 1
 0 <= x_12#210 <= 1
 0 <= x_10#211 <= 1
 0 <= hb_310#212 <= 1
 0 <= x_14#214 <= 1
 0 <= x_11#215 <= 1
 0 <= hb_312#216 <= 1
 0 <= hb_313#218 <= 1
 0 <= x_16#220 <= 1
 0 <= x_13#221 <= 1
 0 <= hb_314#222 <= 1
 0 <= hb_316#224 <= 1
 0 <= hb_317#226 <= 1
 0 <= x_18#228 <= 1
 0 <= hb_318#229 <= 1
      q_0#231 = 0
 0 <= hdu_000#232 <= 1
 0 <= hdu_001#233 <= 1
 0 <= q_2#234 <= 3
 0 <= hdu_002#235 <= 1
 0 <= hdu_003#236 <= 1
      q_4#237 = 0
 0 <= hdu_004#238 <= 1
 0 <= hdu_005#239 <= 1
 0 <= hdu_006#240 <= 1
 0 <= hdu_007#241 <= 1
 0 <= hdu_008#242 <= 1
 0 <= hdu_009#243 <= 1
 0 <= hdu_010#244 <= 1
 0 <= hdu_011#245 <= 1
 0 <= hdu_012#246 <= 1
 0 <= hdu_013#247 <= 1
 0 <= hdu_014#248 <= 1
 0 <= hdu_015#249 <= 1
 0 <= hdu_016#250 <= 1
 0 <= hdu_017#251 <= 1
 0 <= hdu_018#252 <= 1
 0 <= hdu_019#253 <= 1
 0 <= hdu_100#254 <= 1
 0 <= hdu_101#255 <= 1
 0 <= hdu_102#256 <= 1
 0 <= hdu_103#257 <= 1
 0 <= hdu_104#258 <= 1
 0 <= hdu_105#259 <= 1
 0 <= hdu_106#260 <= 1
 0 <= hdu_107#261 <= 1
 0 <= hdu_108#262 <= 1
 0 <= hdu_109#263 <= 1
 0 <= hdu_110#264 <= 1
 0 <= hdu_111#265 <= 1
 0 <= hdu_112#266 <= 1
 0 <= hdu_113#267 <= 1
 0 <= hdu_114#268 <= 1
 0 <= hdu_115#269 <= 1
 0 <= hdu_116#270 <= 1
 0 <= hdu_117#271 <= 1
 0 <= hdu_118#272 <= 1
 0 <= hdu_119#273 <= 1
 0 <= hdu_200#274 <= 1
 0 <= hdu_201#275 <= 1
 0 <= hdu_202#276 <= 1
 0 <= hdu_203#277 <= 1
 0 <= hdu_204#278 <= 1
 0 <= hdu_205#279 <= 1
 0 <= hdu_206#280 <= 1
 0 <= hdu_207#281 <= 1
 0 <= hdu_208#282 <= 1
 0 <= hdu_209#283 <= 1
 0 <= hdu_210#284 <= 1
 0 <= hdu_211#285 <= 1
 0 <= hdu_212#286 <= 1
 0 <= hdu_213#287 <= 1
 0 <= hdu_214#288 <= 1
 0 <= hdu_215#289 <= 1
 0 <= hdu_216#290 <= 1
 0 <= hdu_217#291 <= 1
 0 <= hdu_218#292 <= 1
 0 <= hdu_219#293 <= 1
 0 <= hdu_300#294 <= 1
 0 <= hdu_301#295 <= 1
 0 <= hdu_302#296 <= 1
 0 <= hdu_303#297 <= 1
 0 <= hdu_304#298 <= 1
 0 <= hdu_305#299 <= 1
 0 <= hdu_306#300 <= 1
 0 <= hdu_307#301 <= 1
 0 <= hdu_308#302 <= 1
 0 <= hdu_309#303 <= 1
 0 <= hdu_310#304 <= 1
 0 <= hdu_311#305 <= 1
 0 <= hdu_312#306 <= 1
 0 <= hdu_313#307 <= 1
 0 <= hdu_314#308 <= 1
 0 <= hdu_315#309 <= 1
 0 <= hdu_316#310 <= 1
 0 <= hdu_317#311 <= 1
 0 <= hdu_318#312 <= 1
 0 <= hdu_319#313 <= 1
      z#314 Free
Binaries
 hap_1_00#9  han_2_00#11  hap_1_01#15  han_2_01#17  hap_1_10#21  han_2_10#23 
 hap_1_11#27  han_2_11#29  hap_1_20#33  han_2_20#35  hap_1_21#39  han_2_21#41 
 hap_1_30#45  han_2_30#47  hap_1_31#51  han_2_31#53  hb_002#57  hb_004#62 
 hb_005#66  hb_006#68  hb_007#70  hb_008#73  hb_009#75  hb_010#80  hb_012#84 
 hb_013#86  hb_014#90  hb_016#92  hb_017#94  hb_018#97  hb_102#101  hb_104#106 
 hb_105#110  hb_106#112  hb_107#114  hb_108#117  hb_109#119  hb_110#124 
 hb_112#128  hb_113#130  hb_114#134  hb_116#136  hb_117#138  hb_118#141 
 hb_202#145  hb_204#150  hb_205#154  hb_206#156  hb_207#158  hb_208#161 
 hb_209#163  hb_210#168  hb_212#172  hb_213#174  hb_214#178  hb_216#180 
 hb_217#182  hb_218#185  hb_302#189  hb_304#194  hb_305#198  hb_306#200 
 hb_307#202  hb_308#205  hb_309#207  hb_310#212  hb_312#216  hb_313#218 
 hb_314#222  hb_316#224  hb_317#226  hb_318#229  hdu_000#232  hdu_001#233 
 hdu_002#235  hdu_003#236  hdu_004#238  hdu_005#239  hdu_006#240  hdu_007#241 
 hdu_008#242  hdu_009#243  hdu_010#244  hdu_011#245  hdu_012#246  hdu_013#247 
 hdu_014#248  hdu_015#249  hdu_016#250  hdu_017#251  hdu_018#252  hdu_019#253 
 hdu_100#254  hdu_101#255  hdu_102#256  hdu_103#257  hdu_104#258  hdu_105#259 
 hdu_106#260  hdu_107#261  hdu_108#262  hdu_109#263  hdu_110#264  hdu_111#265 
 hdu_112#266  hdu_113#267  hdu_114#268  hdu_115#269  hdu_116#270  hdu_117#271 
 hdu_118#272  hdu_119#273  hdu_200#274  hdu_201#275  hdu_202#276  hdu_203#277 
 hdu_204#278  hdu_205#279  hdu_206#280  hdu_207#281  hdu_208#282  hdu_209#283 
 hdu_210#284  hdu_211#285  hdu_212#286  hdu_213#287  hdu_214#288  hdu_215#289 
 hdu_216#290  hdu_217#291  hdu_218#292  hdu_219#293  hdu_300#294  hdu_301#295 
 hdu_302#296  hdu_303#297  hdu_304#298  hdu_305#299  hdu_306#300  hdu_307#301 
 hdu_308#302  hdu_309#303  hdu_310#304  hdu_311#305  hdu_312#306  hdu_313#307 
 hdu_314#308  hdu_315#309  hdu_316#310  hdu_317#311  hdu_318#312  hdu_319#313 
End
